benchmarks_vrp/CMT1/tsp_classic/CMT1_4.vrp
NAME: CMT1_4
TYPE: CVRP
COMMENT: 524.61 - Cluster Nr.4
DIMENSION: 10
CAPACITY: 160
EDGE_WEIGHT_TYPE: EUC_2D
NODE_COORD_TYPE: TWOD_COORDS
NODE_COORD_SECTION: 
2 63 69
4 62 63
7 43 67
8 61 33
6 58 27
5 57 58
3 30 40
1 52 64
9 37 69
10 59 15
DEPOT_SECTION: 
3
-1
DEMAND_SECTION: 
5 28
7 14
1 16
8 26
4 17
6 19
2 6
10 14
9 11
3 0
EOF
