benchmarks_vrp/CMT1/tsp_classic/CMT1_4.tour
NAME: CMT1_4 solution
TYPE: TOUR
TOUR_SECTION:
3 9 7 1 2 4 5 8 6 10 -1
-1
EOF